(set-info :source |printed by MathSAT|)
(declare-fun call__main_.flby2 () Int)
(declare-fun call__main_.call_hypothese2.flby () Bool)
(declare-fun param__S_.next () Bool)
(declare-fun call__main_.call_hypothese.ite3.next () Int)
(declare-fun call__main_.call_controleur2.ite.next () Bool)
(declare-fun call__main_.diff0 () Int)
(declare-fun call__main_.call_controleur2.retard () Bool)
(declare-fun call_Sofar.Sofar () Bool)
(declare-fun call__main_.call_hypothese2.c.next () Int)
(declare-fun nB1 () Int)
(declare-fun call__main_.call_controleur2.flby2.next () Bool)
(declare-fun call__main_.nB1 () Int)
(declare-fun avance1 () Bool)
(declare-fun call__main_.call_hypothese2.c () Int)
(declare-fun pOK.next () Bool)
(declare-fun flby2 () Bool)
(declare-fun ast.next () Bool)
(declare-fun call__main_.nB0 () Int)
(declare-fun avance1.next () Bool)
(declare-fun call__main_.nS.next () Int)
(declare-fun call__main_.call_controleur2.diff () Int)
(declare-fun call__main_._H0_.next () Bool)
(declare-fun call__main_.call_controleur.flby () Bool)
(declare-fun call__main_.retard0 () Bool)
(declare-fun call__main_.call_hypothese.flby () Bool)
(declare-fun call__main_.flby2.next () Int)
(declare-fun pOK () Bool)
(declare-fun nB0 () Int)
(declare-fun call__main_.call_controleur.flby.next () Bool)
(declare-fun ast () Bool)
(declare-fun call__main_.call_controleur.ite2.next () Bool)
(declare-fun call__main_.call_hypothese.flby.next () Bool)
(declare-fun nS.next () Int)
(declare-fun call__main_.call_controleur2.diff.next () Int)
(declare-fun call__main_.avance1 () Bool)
(declare-fun param__B1_.next () Bool)
(declare-fun call__main_.flby.next () Int)
(declare-fun call__main_.call_controleur.flby2 () Bool)
(declare-fun call__main_.call_controleur.flby2.next () Bool)
(declare-fun call__main_.nB0.next () Int)
(declare-fun _OK_ () Bool)
(declare-fun call__main_.diff0.next () Int)
(declare-fun call__main_.call_hypothese.c.next () Int)
(declare-fun retard0.next () Bool)
(declare-fun param__B0_.next () Bool)
(declare-fun call__main_.call_hypothese.c () Int)
(declare-fun diff0.next () Int)
(declare-fun call__main_.call_hypothese2.flby.next () Bool)
(declare-fun call__main_.call_hypothese.ite2.next () Bool)
(declare-fun call__main_.call_controleur.ite.next () Bool)
(declare-fun call__main_.call_controleur.retard.next () Bool)
(declare-fun call__main_.call_controleur2.flby2 () Bool)
(declare-fun call__main_.call_controleur2.avance () Bool)
(declare-fun call__main_.call_controleur2.flby.next () Bool)
(declare-fun retard1 () Bool)
(declare-fun call__main_.avance0.next () Bool)
(declare-fun call__main_.flby3 () Int)
(declare-fun call__main_.call_hypothese.ite4.next () Int)
(declare-fun call__main_.call_hypothese.ok.next () Bool)
(declare-fun call__main_.flby3.next () Int)
(declare-fun avance0.next () Bool)
(declare-fun call__main_.avance0 () Bool)
(declare-fun call__main_.call_hypothese2.ite2.next () Bool)
(declare-fun call__main_.ast () Bool)
(declare-fun nB1.next () Int)
(declare-fun flby.next () Bool)
(declare-fun call_Sofar.flby.next () Bool)
(declare-fun call__main_.call_hypothese2.flby2.next () Int)
(declare-fun call_Sofar.flby () Bool)
(declare-fun call__main_.call_hypothese.ok () Bool)
(declare-fun call__main_.call_controleur2.ite2.next () Bool)
(declare-fun flby2.next () Bool)
(declare-fun call__main_.ite2.next () Int)
(declare-fun call__main_.retard1 () Bool)
(declare-fun call__main_.call_controleur.retard () Bool)
(declare-fun _OK_.next () Bool)
(declare-fun nB0.next () Int)
(declare-fun call__main_.call_hypothese2.ite4.next () Int)
(declare-fun call__main_.call_hypothese2.ok () Bool)
(declare-fun call__main_.call_controleur2.avance.next () Bool)
(declare-fun call__main_.call_hypothese.flby2.next () Int)
(declare-fun call__main_.ast.next () Bool)
(declare-fun call__main_.nS () Int)
(declare-fun call__main_.call_controleur2.flby () Bool)
(declare-fun call__main_.call_controleur.diff () Int)
(declare-fun call__main_.diff1 () Int)
(declare-fun call__main_.ite.next () Int)
(declare-fun call__main_.call_hypothese.flby2 () Int)
(declare-fun call__main_.call_hypothese2.ite.next () Bool)
(declare-fun call__main_._H0_ () Bool)
(declare-fun call_Sofar.Sofar.next () Bool)
(declare-fun call__main_.avance1.next () Bool)
(declare-fun call__main_.flby () Int)
(declare-fun flby () Bool)
(declare-fun call__main_.nB1.next () Int)
(declare-fun call__main_._H1_.next () Bool)
(declare-fun call__main_.call_hypothese.ite.next () Bool)
(declare-fun retard1.next () Bool)
(declare-fun call__main_.call_hypothese2.ite3.next () Int)
(declare-fun call__main_.ite3.next () Int)
(declare-fun call__main_.call_hypothese2.flby2 () Int)
(declare-fun diff1.next () Int)
(declare-fun nS () Int)
(declare-fun call__main_.call_hypothese2.ok.next () Bool)
(declare-fun call__main_.retard0.next () Bool)
(declare-fun diff0 () Int)
(declare-fun call__main_.call_controleur2.retard.next () Bool)
(declare-fun avance0 () Bool)
(declare-fun diff1 () Int)
(declare-fun call__main_.diff1.next () Int)
(declare-fun retard0 () Bool)
(declare-fun call__main_.call_controleur.avance.next () Bool)
(declare-fun call__main_.call_controleur.avance () Bool)
(declare-fun call__main_.retard1.next () Bool)
(declare-fun call__main_._H1_ () Bool)
(declare-fun call__main_.call_controleur.diff.next () Int)
(define-fun .def_987 () Bool (= call_Sofar.flby.next call_Sofar.Sofar.next))
(define-fun .def_985 () Bool (= call__main_.call_controleur2.flby2.next call__main_.call_controleur2.retard.next))
(define-fun .def_983 () Bool (= call__main_.call_controleur2.flby.next call__main_.call_controleur2.avance.next))
(define-fun .def_976 () Int (* (- 1) call__main_.nB1.next))
(define-fun .def_979 () Int (+ .def_976 call__main_.nS.next))
(define-fun .def_980 () Int (+ call__main_.call_controleur2.diff.next .def_979))
(define-fun .def_981 () Bool (= .def_980 0))
(define-fun .def_974 () Bool (= call__main_.call_controleur.flby2.next call__main_.call_controleur.retard.next))
(define-fun .def_972 () Bool (= call__main_.call_controleur.flby.next call__main_.call_controleur.avance.next))
(define-fun .def_965 () Int (* (- 1) call__main_.nB0.next))
(define-fun .def_968 () Int (+ .def_965 call__main_.nS.next))
(define-fun .def_969 () Int (+ call__main_.call_controleur.diff.next .def_968))
(define-fun .def_970 () Bool (= .def_969 0))
(define-fun .def_963 () Bool (= call__main_.call_hypothese2.flby2.next call__main_.call_hypothese2.c.next))
(define-fun .def_960 () Bool (= call__main_.call_hypothese2.flby.next call__main_.call_hypothese2.ok.next))
(define-fun .def_958 () Bool (= call__main_.call_hypothese.flby2.next call__main_.call_hypothese.c.next))
(define-fun .def_955 () Bool (= call__main_.call_hypothese.flby.next call__main_.call_hypothese.ok.next))
(define-fun .def_953 () Bool (= call__main_._H1_.next call__main_.call_hypothese2.ok.next))
(define-fun .def_950 () Bool (= call__main_._H0_.next call__main_.call_hypothese.ok.next))
(define-fun .def_947 () Bool (= call__main_.retard1.next call__main_.call_controleur2.retard.next))
(define-fun .def_944 () Bool (= call__main_.retard0.next call__main_.call_controleur.retard.next))
(define-fun .def_941 () Bool (= call__main_.avance1.next call__main_.call_controleur2.avance.next))
(define-fun .def_938 () Bool (= call__main_.avance0.next call__main_.call_controleur.avance.next))
(define-fun .def_935 () Bool (= call__main_.call_controleur2.diff.next call__main_.diff1.next))
(define-fun .def_933 () Bool (= call__main_.call_controleur.diff.next call__main_.diff0.next))
(define-fun .def_931 () Bool (= call__main_.flby3.next call__main_.nS.next))
(define-fun .def_929 () Bool (= call__main_.flby2.next call__main_.nB1.next))
(define-fun .def_927 () Bool (= call__main_.flby.next call__main_.nB0.next))
(define-fun .def_924 () Bool (and call__main_._H0_.next call__main_._H1_.next))
(define-fun .def_925 () Bool (= call__main_.ast.next .def_924))
(define-fun .def_920 () Bool (= ast.next call__main_.ast.next))
(define-fun .def_917 () Bool (= flby.next pOK.next))
(define-fun .def_914 () Bool (= retard1.next call__main_.retard1.next))
(define-fun .def_910 () Bool (= retard0.next call__main_.retard0.next))
(define-fun .def_907 () Bool (= call__main_.avance1.next avance1.next))
(define-fun .def_904 () Bool (= avance0.next call__main_.avance0.next))
(define-fun .def_902 () Bool (= diff1.next call__main_.diff1.next))
(define-fun .def_898 () Bool (= diff0.next call__main_.diff0.next))
(define-fun .def_895 () Bool (= nS.next call__main_.nS.next))
(define-fun .def_892 () Bool (= nB1.next call__main_.nB1.next))
(define-fun .def_889 () Bool (= nB0.next call__main_.nB0.next))
(define-fun .def_885 () Bool (not call_Sofar.Sofar.next))
(define-fun .def_886 () Bool (or flby2.next .def_885))
(define-fun .def_887 () Bool (= _OK_.next .def_886))
(define-fun .def_890 () Bool (and .def_887 .def_889))
(define-fun .def_893 () Bool (and .def_890 .def_892))
(define-fun .def_896 () Bool (and .def_893 .def_895))
(define-fun .def_899 () Bool (and .def_896 .def_898))
(define-fun .def_903 () Bool (and .def_899 .def_902))
(define-fun .def_905 () Bool (and .def_903 .def_904))
(define-fun .def_908 () Bool (and .def_905 .def_907))
(define-fun .def_911 () Bool (and .def_908 .def_910))
(define-fun .def_915 () Bool (and .def_911 .def_914))
(define-fun .def_918 () Bool (and .def_915 .def_917))
(define-fun .def_921 () Bool (and .def_918 .def_920))
(define-fun .def_926 () Bool (and .def_921 .def_925))
(define-fun .def_928 () Bool (and .def_926 .def_927))
(define-fun .def_930 () Bool (and .def_928 .def_929))
(define-fun .def_932 () Bool (and .def_930 .def_931))
(define-fun .def_934 () Bool (and .def_932 .def_933))
(define-fun .def_936 () Bool (and .def_934 .def_935))
(define-fun .def_939 () Bool (and .def_936 .def_938))
(define-fun .def_942 () Bool (and .def_939 .def_941))
(define-fun .def_945 () Bool (and .def_942 .def_944))
(define-fun .def_948 () Bool (and .def_945 .def_947))
(define-fun .def_951 () Bool (and .def_948 .def_950))
(define-fun .def_954 () Bool (and .def_951 .def_953))
(define-fun .def_956 () Bool (and .def_954 .def_955))
(define-fun .def_959 () Bool (and .def_956 .def_958))
(define-fun .def_961 () Bool (and .def_959 .def_960))
(define-fun .def_964 () Bool (and .def_961 .def_963))
(define-fun .def_971 () Bool (and .def_964 .def_970))
(define-fun .def_973 () Bool (and .def_971 .def_972))
(define-fun .def_975 () Bool (and .def_973 .def_974))
(define-fun .def_982 () Bool (and .def_975 .def_981))
(define-fun .def_984 () Bool (and .def_982 .def_983))
(define-fun .def_986 () Bool (and .def_984 .def_985))
(define-fun .def_988 () Bool (and .def_986 .def_987))
(define-fun .def_672 () Bool (= call_Sofar.flby call_Sofar.Sofar))
(define-fun .def_670 () Bool (= call__main_.call_controleur2.flby2 call__main_.call_controleur2.retard))
(define-fun .def_668 () Bool (= call__main_.call_controleur2.flby call__main_.call_controleur2.avance))
(define-fun .def_663 () Int (* (- 1) call__main_.call_controleur2.diff))
(define-fun .def_651 () Int (* (- 1) call__main_.nS))
(define-fun .def_664 () Int (+ .def_651 .def_663))
(define-fun .def_665 () Int (+ call__main_.nB1 .def_664))
(define-fun .def_666 () Bool (= .def_665 0))
(define-fun .def_658 () Bool (= call__main_.call_controleur.flby2 call__main_.call_controleur.retard))
(define-fun .def_656 () Bool (= call__main_.call_controleur.flby call__main_.call_controleur.avance))
(define-fun .def_650 () Int (* (- 1) call__main_.call_controleur.diff))
(define-fun .def_652 () Int (+ .def_651 .def_650))
(define-fun .def_653 () Int (+ call__main_.nB0 .def_652))
(define-fun .def_654 () Bool (= .def_653 0))
(define-fun .def_645 () Bool (= call__main_.call_hypothese2.flby2 call__main_.call_hypothese2.c))
(define-fun .def_642 () Bool (= call__main_.call_hypothese2.flby call__main_.call_hypothese2.ok))
(define-fun .def_640 () Bool (= call__main_.call_hypothese.flby2 call__main_.call_hypothese.c))
(define-fun .def_637 () Bool (= call__main_.call_hypothese.flby call__main_.call_hypothese.ok))
(define-fun .def_635 () Bool (= call__main_._H1_ call__main_.call_hypothese2.ok))
(define-fun .def_632 () Bool (= call__main_._H0_ call__main_.call_hypothese.ok))
(define-fun .def_629 () Bool (= call__main_.retard1 call__main_.call_controleur2.retard))
(define-fun .def_626 () Bool (= call__main_.retard0 call__main_.call_controleur.retard))
(define-fun .def_623 () Bool (= call__main_.avance1 call__main_.call_controleur2.avance))
(define-fun .def_620 () Bool (= call__main_.avance0 call__main_.call_controleur.avance))
(define-fun .def_617 () Bool (= call__main_.diff1 call__main_.call_controleur2.diff))
(define-fun .def_614 () Bool (= call__main_.diff0 call__main_.call_controleur.diff))
(define-fun .def_611 () Bool (= call__main_.flby3 call__main_.nS))
(define-fun .def_609 () Bool (= call__main_.flby2 call__main_.nB1))
(define-fun .def_607 () Bool (= call__main_.flby call__main_.nB0))
(define-fun .def_604 () Bool (and call__main_._H0_ call__main_._H1_))
(define-fun .def_605 () Bool (= call__main_.ast .def_604))
(define-fun .def_600 () Bool (= ast call__main_.ast))
(define-fun .def_597 () Bool (= flby pOK))
(define-fun .def_594 () Bool (= retard1 call__main_.retard1))
(define-fun .def_590 () Bool (= retard0 call__main_.retard0))
(define-fun .def_586 () Bool (= avance1 call__main_.avance1))
(define-fun .def_582 () Bool (= avance0 call__main_.avance0))
(define-fun .def_578 () Bool (= diff1 call__main_.diff1))
(define-fun .def_574 () Bool (= diff0 call__main_.diff0))
(define-fun .def_571 () Bool (= nS call__main_.nS))
(define-fun .def_568 () Bool (= nB1 call__main_.nB1))
(define-fun .def_565 () Bool (= nB0 call__main_.nB0))
(define-fun .def_561 () Bool (not call_Sofar.Sofar))
(define-fun .def_562 () Bool (or flby2 .def_561))
(define-fun .def_563 () Bool (= _OK_ .def_562))
(define-fun .def_566 () Bool (and .def_563 .def_565))
(define-fun .def_569 () Bool (and .def_566 .def_568))
(define-fun .def_572 () Bool (and .def_569 .def_571))
(define-fun .def_575 () Bool (and .def_572 .def_574))
(define-fun .def_579 () Bool (and .def_575 .def_578))
(define-fun .def_583 () Bool (and .def_579 .def_582))
(define-fun .def_587 () Bool (and .def_583 .def_586))
(define-fun .def_591 () Bool (and .def_587 .def_590))
(define-fun .def_595 () Bool (and .def_591 .def_594))
(define-fun .def_598 () Bool (and .def_595 .def_597))
(define-fun .def_601 () Bool (and .def_598 .def_600))
(define-fun .def_606 () Bool (and .def_601 .def_605))
(define-fun .def_608 () Bool (and .def_606 .def_607))
(define-fun .def_610 () Bool (and .def_608 .def_609))
(define-fun .def_612 () Bool (and .def_610 .def_611))
(define-fun .def_615 () Bool (and .def_612 .def_614))
(define-fun .def_618 () Bool (and .def_615 .def_617))
(define-fun .def_621 () Bool (and .def_618 .def_620))
(define-fun .def_624 () Bool (and .def_621 .def_623))
(define-fun .def_627 () Bool (and .def_624 .def_626))
(define-fun .def_630 () Bool (and .def_627 .def_629))
(define-fun .def_633 () Bool (and .def_630 .def_632))
(define-fun .def_636 () Bool (and .def_633 .def_635))
(define-fun .def_638 () Bool (and .def_636 .def_637))
(define-fun .def_641 () Bool (and .def_638 .def_640))
(define-fun .def_643 () Bool (and .def_641 .def_642))
(define-fun .def_646 () Bool (and .def_643 .def_645))
(define-fun .def_655 () Bool (and .def_646 .def_654))
(define-fun .def_657 () Bool (and .def_655 .def_656))
(define-fun .def_659 () Bool (and .def_657 .def_658))
(define-fun .def_667 () Bool (and .def_659 .def_666))
(define-fun .def_669 () Bool (and .def_667 .def_668))
(define-fun .def_671 () Bool (and .def_669 .def_670))
(define-fun .def_673 () Bool (and .def_671 .def_672))
(define-fun .def_989 () Bool (and .def_673 .def_988))
(define-fun .def_876 () Bool (<= 32767 diff0.next))
(define-fun .def_877 () Bool (not .def_876))
(define-fun .def_872 () Bool (<= 1 nS.next))
(define-fun .def_873 () Bool (not .def_872))
(define-fun .def_868 () Bool (<= 1 nB1.next))
(define-fun .def_869 () Bool (not .def_868))
(define-fun .def_863 () Bool (<= 1 nB0.next))
(define-fun .def_864 () Bool (not .def_863))
(define-fun .def_866 () Bool (and .def_864 ast.next))
(define-fun .def_870 () Bool (and .def_866 .def_869))
(define-fun .def_874 () Bool (and .def_870 .def_873))
(define-fun .def_878 () Bool (and .def_874 .def_877))
(define-fun .def_879 () Bool (and call_Sofar.Sofar .def_878))
(define-fun .def_881 () Bool (= .def_879 call_Sofar.flby.next))
(define-fun .def_860 () Bool (= call__main_.call_controleur2.ite2.next call__main_.call_controleur2.flby2.next))
(define-fun .def_857 () Bool (= call__main_.call_controleur2.ite.next call__main_.call_controleur2.flby.next))
(define-fun .def_850 () Bool (<= 0 call__main_.call_controleur2.diff.next))
(define-fun .def_851 () Bool (not .def_850))
(define-fun .def_852 () Bool (= call__main_.call_controleur2.ite2.next .def_851))
(define-fun .def_849 () Bool (not call__main_.call_controleur2.retard))
(define-fun .def_853 () Bool (or .def_849 .def_852))
(define-fun .def_844 () Bool (<= call__main_.call_controleur2.diff.next (- 10)))
(define-fun .def_846 () Bool (= .def_844 call__main_.call_controleur2.ite2.next))
(define-fun .def_847 () Bool (or call__main_.call_controleur2.retard .def_846))
(define-fun .def_840 () Bool (<= 10 call__main_.call_controleur2.diff.next))
(define-fun .def_841 () Bool (= call__main_.call_controleur2.ite.next .def_840))
(define-fun .def_842 () Bool (or call__main_.call_controleur2.avance .def_841))
(define-fun .def_835 () Bool (<= call__main_.call_controleur2.diff.next 0))
(define-fun .def_836 () Bool (not .def_835))
(define-fun .def_838 () Bool (= .def_836 call__main_.call_controleur2.ite.next))
(define-fun .def_833 () Bool (not call__main_.call_controleur2.avance))
(define-fun .def_839 () Bool (or .def_833 .def_838))
(define-fun .def_843 () Bool (and .def_839 .def_842))
(define-fun .def_848 () Bool (and .def_843 .def_847))
(define-fun .def_854 () Bool (and .def_848 .def_853))
(define-fun .def_831 () Bool (= call__main_.call_controleur.ite2.next call__main_.call_controleur.flby2.next))
(define-fun .def_828 () Bool (= call__main_.call_controleur.ite.next call__main_.call_controleur.flby.next))
(define-fun .def_821 () Bool (<= 0 call__main_.call_controleur.diff.next))
(define-fun .def_822 () Bool (not .def_821))
(define-fun .def_823 () Bool (= call__main_.call_controleur.ite2.next .def_822))
(define-fun .def_820 () Bool (not call__main_.call_controleur.retard))
(define-fun .def_824 () Bool (or .def_820 .def_823))
(define-fun .def_815 () Bool (<= call__main_.call_controleur.diff.next (- 10)))
(define-fun .def_817 () Bool (= .def_815 call__main_.call_controleur.ite2.next))
(define-fun .def_818 () Bool (or call__main_.call_controleur.retard .def_817))
(define-fun .def_811 () Bool (<= 10 call__main_.call_controleur.diff.next))
(define-fun .def_812 () Bool (= call__main_.call_controleur.ite.next .def_811))
(define-fun .def_813 () Bool (or call__main_.call_controleur.avance .def_812))
(define-fun .def_806 () Bool (<= call__main_.call_controleur.diff.next 0))
(define-fun .def_807 () Bool (not .def_806))
(define-fun .def_809 () Bool (= .def_807 call__main_.call_controleur.ite.next))
(define-fun .def_804 () Bool (not call__main_.call_controleur.avance))
(define-fun .def_810 () Bool (or .def_804 .def_809))
(define-fun .def_814 () Bool (and .def_810 .def_813))
(define-fun .def_819 () Bool (and .def_814 .def_818))
(define-fun .def_825 () Bool (and .def_819 .def_824))
(define-fun .def_802 () Bool (= call__main_.call_hypothese2.ite4.next call__main_.call_hypothese2.flby2.next))
(define-fun .def_797 () Bool (and call__main_.call_hypothese2.ite2.next call__main_.call_hypothese2.ite.next))
(define-fun .def_799 () Bool (= .def_797 call__main_.call_hypothese2.flby.next))
(define-fun .def_682 () Bool (<= 9 call__main_.call_hypothese2.c))
(define-fun .def_795 () Bool (or call__main_.call_hypothese2.ite2.next .def_682))
(define-fun .def_793 () Bool (= call__main_.call_hypothese.ite4.next call__main_.call_hypothese.flby2.next))
(define-fun .def_788 () Bool (and call__main_.call_hypothese.ite2.next call__main_.call_hypothese.ite.next))
(define-fun .def_790 () Bool (= .def_788 call__main_.call_hypothese.flby.next))
(define-fun .def_704 () Bool (<= 9 call__main_.call_hypothese.c))
(define-fun .def_786 () Bool (or call__main_.call_hypothese.ite2.next .def_704))
(define-fun .def_784 () Bool (= call__main_.ite3.next call__main_.flby3.next))
(define-fun .def_781 () Bool (= call__main_.ite2.next call__main_.flby2.next))
(define-fun .def_778 () Bool (= call__main_.ite.next call__main_.flby.next))
(define-fun .def_775 () Bool (or call__main_.retard1 call__main_.call_hypothese2.ite.next))
(define-fun .def_773 () Bool (or call__main_.retard0 call__main_.call_hypothese.ite.next))
(define-fun .def_766 () Bool (and call__main_.avance1 call__main_.avance1.next))
(define-fun .def_769 () Bool (not .def_766))
(define-fun .def_768 () Bool (= call__main_.call_hypothese2.ite3.next call__main_.call_hypothese2.ite4.next))
(define-fun .def_770 () Bool (or .def_768 .def_769))
(define-fun .def_764 () Bool (= call__main_.call_hypothese2.ite4.next 0))
(define-fun .def_767 () Bool (or .def_764 .def_766))
(define-fun .def_771 () Bool (and .def_767 .def_770))
(define-fun .def_756 () Bool (and call__main_.avance0 call__main_.avance0.next))
(define-fun .def_759 () Bool (not .def_756))
(define-fun .def_758 () Bool (= call__main_.call_hypothese.ite3.next call__main_.call_hypothese.ite4.next))
(define-fun .def_760 () Bool (or .def_758 .def_759))
(define-fun .def_754 () Bool (= call__main_.call_hypothese.ite4.next 0))
(define-fun .def_757 () Bool (or .def_754 .def_756))
(define-fun .def_761 () Bool (and .def_757 .def_760))
(define-fun .def_751 () Bool (= pOK flby2.next))
(define-fun .def_744 () Bool (and retard0 avance0.next))
(define-fun .def_742 () Bool (and avance0 retard0.next))
(define-fun .def_745 () Bool (or .def_742 .def_744))
(define-fun .def_746 () Bool (not .def_745))
(define-fun .def_748 () Bool (= .def_746 flby.next))
(define-fun .def_737 () Bool (= call__main_.nS call__main_.ite3.next))
(define-fun .def_738 () Bool (or param__S_.next .def_737))
(define-fun .def_732 () Int (* (- 1) call__main_.ite3.next))
(define-fun .def_733 () Int (+ call__main_.nS .def_732))
(define-fun .def_734 () Bool (= .def_733 (- 1)))
(define-fun .def_721 () Bool (not param__S_.next))
(define-fun .def_735 () Bool (or .def_721 .def_734))
(define-fun .def_728 () Bool (not call__main_.retard0))
(define-fun .def_727 () Bool (= .def_721 call__main_.call_hypothese.ite.next))
(define-fun .def_729 () Bool (or .def_727 .def_728))
(define-fun .def_724 () Bool (not call__main_.retard1))
(define-fun .def_723 () Bool (= .def_721 call__main_.call_hypothese2.ite.next))
(define-fun .def_725 () Bool (or .def_723 .def_724))
(define-fun .def_730 () Bool (and .def_725 .def_729))
(define-fun .def_736 () Bool (and .def_730 .def_735))
(define-fun .def_739 () Bool (and .def_736 .def_738))
(define-fun .def_716 () Bool (= call__main_.nB0 call__main_.ite.next))
(define-fun .def_717 () Bool (or param__B0_.next .def_716))
(define-fun .def_711 () Int (* (- 1) call__main_.ite.next))
(define-fun .def_712 () Int (+ call__main_.nB0 .def_711))
(define-fun .def_713 () Bool (= .def_712 (- 1)))
(define-fun .def_700 () Bool (not param__B0_.next))
(define-fun .def_714 () Bool (or .def_700 .def_713))
(define-fun .def_698 () Bool (= call__main_.call_hypothese.c call__main_.call_hypothese.ite3.next))
(define-fun .def_708 () Bool (or .def_698 param__B0_.next))
(define-fun .def_705 () Bool (not .def_704))
(define-fun .def_703 () Bool (= .def_700 call__main_.call_hypothese.ite2.next))
(define-fun .def_706 () Bool (or .def_703 .def_705))
(define-fun .def_701 () Bool (or .def_698 .def_700))
(define-fun .def_707 () Bool (and .def_701 .def_706))
(define-fun .def_709 () Bool (and .def_707 .def_708))
(define-fun .def_715 () Bool (and .def_709 .def_714))
(define-fun .def_718 () Bool (and .def_715 .def_717))
(define-fun .def_694 () Bool (= call__main_.nB1 call__main_.ite2.next))
(define-fun .def_695 () Bool (or param__B1_.next .def_694))
(define-fun .def_689 () Int (* (- 1) call__main_.ite2.next))
(define-fun .def_690 () Int (+ call__main_.nB1 .def_689))
(define-fun .def_691 () Bool (= .def_690 (- 1)))
(define-fun .def_678 () Bool (not param__B1_.next))
(define-fun .def_692 () Bool (or .def_678 .def_691))
(define-fun .def_676 () Bool (= call__main_.call_hypothese2.c call__main_.call_hypothese2.ite3.next))
(define-fun .def_686 () Bool (or .def_676 param__B1_.next))
(define-fun .def_683 () Bool (not .def_682))
(define-fun .def_681 () Bool (= .def_678 call__main_.call_hypothese2.ite2.next))
(define-fun .def_684 () Bool (or .def_681 .def_683))
(define-fun .def_679 () Bool (or .def_676 .def_678))
(define-fun .def_685 () Bool (and .def_679 .def_684))
(define-fun .def_687 () Bool (and .def_685 .def_686))
(define-fun .def_693 () Bool (and .def_687 .def_692))
(define-fun .def_696 () Bool (and .def_693 .def_695))
(define-fun .def_719 () Bool (and .def_696 .def_718))
(define-fun .def_740 () Bool (and .def_719 .def_739))
(define-fun .def_749 () Bool (and .def_740 .def_748))
(define-fun .def_752 () Bool (and .def_749 .def_751))
(define-fun .def_762 () Bool (and .def_752 .def_761))
(define-fun .def_772 () Bool (and .def_762 .def_771))
(define-fun .def_774 () Bool (and .def_772 .def_773))
(define-fun .def_776 () Bool (and .def_774 .def_775))
(define-fun .def_779 () Bool (and .def_776 .def_778))
(define-fun .def_782 () Bool (and .def_779 .def_781))
(define-fun .def_785 () Bool (and .def_782 .def_784))
(define-fun .def_787 () Bool (and .def_785 .def_786))
(define-fun .def_791 () Bool (and .def_787 .def_790))
(define-fun .def_794 () Bool (and .def_791 .def_793))
(define-fun .def_796 () Bool (and .def_794 .def_795))
(define-fun .def_800 () Bool (and .def_796 .def_799))
(define-fun .def_803 () Bool (and .def_800 .def_802))
(define-fun .def_826 () Bool (and .def_803 .def_825))
(define-fun .def_829 () Bool (and .def_826 .def_828))
(define-fun .def_832 () Bool (and .def_829 .def_831))
(define-fun .def_855 () Bool (and .def_832 .def_854))
(define-fun .def_858 () Bool (and .def_855 .def_857))
(define-fun .def_861 () Bool (and .def_858 .def_860))
(define-fun .def_882 () Bool (and .def_861 .def_881))
(define-fun .def_990 () Bool (and .def_882 .def_989))
(assert .def_990)
